NAME : morphed22-5-20
COMMENT : Generated using the function morphInstances from the R-package netgen (Bossek,2015) - Number of clusters: 5 Alpha: 0.5
TYPE : TSP
DIMENSION : 22
EDGE_WEIGHT_TYPE : EUC_2D
NODE_COORD_SECTION
1 90.3087561911 36.3059292113
2 83.7790159889 9.2248984939
3 28.3656171036 22.1559084511
4 44.3154033058 9.3654592504
5 80.8512581587 82.6040182253
6 77.3494755459 98.8136265666
7 20.4285707222 7.7168656858
8 8.2907563425 58.9283877456
9 33.3339327611 31.6950924968
10 41.8152472221 34.3635136484
11 65.3202382117 82.1760024349
12 81.6701598776 23.0063990521
13 1.031804278 49.7580251842
14 72.9082987385 53.6116963472
15 19.7516024076 49.9759121749
16 46.5347220315 91.5382353194
17 41.4871605109 77.2185395657
18 17.7980209087 30.1040940834
19 35.0133947393 76.3827636754
20 85.9769749453 6.2070220064
21 53.27005672 56.6253997661
22 6.2742530423 44.2530435878
EOF
